benchmarks_vrp/CMT4/fixed_c/CMT4_0.vrp
NAME: CMT4_0
TYPE: CVRP
COMMENT: 1028.42 - Cluster Nr.0
DIMENSION: 15
CAPACITY: 200
EDGE_WEIGHT_TYPE: EUC_2D
NODE_COORD_TYPE: TWOD_COORDS
NODE_COORD_SECTION: 
8 62 77
9 49 58
5 35 35
4 65 55
10 55 54
3 63 69
12 61 52
14 55 60
6 52 64
15 57 58
7 49 73
1 57 68
11 63 65
2 62 63
13 53 52
DEPOT_SECTION: 
5
-1
DEMAND_SECTION: 
2 17
6 16
1 15
8 20
11 8
14 16
10 26
13 11
5 0
9 10
12 3
4 14
3 6
15 28
7 25
EOF
