benchmarks_vrp/CMT4/fixed_c/CMT4_0.tour
NAME: CMT4_0 solution
TYPE: TOUR
TOUR_SECTION:
5 12 4 2 11 3 8 1 7 6 14 15 9 -1
5 10 13 -1
-1
EOF